instances/knapsack/discrete/knapsack_80_17.kp
29384
80
379

67 6.7 57
95 9.5 78
33 3.3 67
86 8.6 3
83 8.3 9
65 6.5 8
28 2.8 65
95 9.5 39
40 4.0 58
17 1.7 30
79 7.9 78
90 9.0 94
35 3.5 94
31 3.1 85
60 6.0 94
44 4.4 31
96 9.6 1
11 1.1 37
52 5.2 78
37 3.7 25
8 0.8 1
91 9.1 70
51 5.1 35
42 4.2 91
40 4.0 96
67 6.7 54
13 1.3 51
43 4.3 31
77 7.7 33
62 6.2 56
13 1.3 24
99 9.9 35
51 5.1 11
100 10.0 58
83 8.3 99
52 5.2 68
59 5.9 60
100 10.0 46
7 0.7 50
46 4.6 71
22 2.2 15
17 1.7 1
41 4.1 49
77 7.7 94
26 2.6 54
18 1.8 74
49 4.9 80
17 1.7 68
46 4.6 88
59 5.9 21
22 2.2 38
63 6.3 78
32 3.2 54
63 6.3 24
16 1.6 23
91 9.1 73
8 0.8 22
94 9.4 3
7 0.7 15
45 4.5 22
44 4.4 95
6 0.6 13
99 9.9 37
58 5.8 97
71 7.1 6
3 0.3 40
20 2.0 40
34 3.4 77
47 4.7 44
73 7.3 1
45 4.5 80
81 8.1 2
25 2.5 76
38 3.8 49
87 8.7 54
8 0.8 65
46 4.6 29
82 8.2 100
4 0.4 59
50 5.0 67

11089
365

[1.66 2.93 0.12 2.27 1.82 0.95 2.12 1.28 0.2 0.58 1.02 3.22 1.03 0.98 3.6 3.65 3.73 1.04 2.66 1.3 3.71 2.02 0.58 3.12 0.58 1.73 1.15 1.4 2.63 1.92 2.4 4.3 1.68 2.04 4.4 2.9 0.41 2.18 2.8 3.7 4.06 3.91 1.13 0.3 2.37 3.82 3.28 3.92 2.8 0.77 2.65 2.72 3.37 4.36 4.09 1.24 2.6 1.77 1.55 2.98 3.54 1.93 1.97 2.83 1.17 1.94 1.64 4.11 3.53 4.55 3.25 0.19 0.16 2.86 4.15 1.64 1.22 3.97 2.64 2.24]

[9 90 60 45 70 95 19 85 79 80 73 33 26 70 38 10 39 2 63 16 39 65 90 20 2 46 44 25 7 9 75 85 21 31 54 3 14 98 50 64 85 47 64 63 29 76 27 31 57 10 68 82 75 82 70 29 71 44 38 4 94 8 57 48 85 46 66 88 50 23 23 27 76 45 21 18 24 93 6 40]
