instances/knapsack/discrete/knapsack_80_17.lp
\ Model knapsack_80_17
\ LP format - for model browsing. Use MPS format to capture full model detail.
\ Signature: 0xf86d0bbf74a39a5e
Minimize
  - 38 x[0] - 50 x[1] - 32 x[2] - 68 x[3] - 37 x[4] - 29 x[5] - 13 x[6]
   - 19 x[7] - 58 x[8] - 10 x[9] - 27 x[10] - 15 x[11] - 99 x[12]
   - 86 x[13] - 27 x[14] - 40 x[15] - 50 x[16] - 90 x[17] - 90 x[18]
   - 45 x[19] - 73 x[20] - 87 x[21] - 36 x[22] - 68 x[23] - 5 x[24]
   - 10 x[25] - 92 x[26] - 31 x[27] - 78 x[28] - 72 x[29] - 5 x[30]
   - 76 x[31] - 16 x[32] - 95 x[33] - 19 x[34] - x[35] - 81 x[36]
   - 39 x[37] - 2 x[38] - 27 x[39] - 4 x[40] - 25 x[41] - 69 x[42]
   - 71 x[43] - 14 x[44] - 47 x[45] - 36 x[46] - 44 x[47] - 60 x[48]
   - 13 x[49] - 59 x[50] - 78 x[51] - 15 x[52] - 41 x[53] - 4 x[54]
   - 62 x[55] - 78 x[56] - 84 x[57] - 36 x[58] - 19 x[59] - 76 x[60]
   - 6 x[61] - x[62] - 81 x[63] - 26 x[64] - 93 x[65] - 25 x[66] - 65 x[67]
   - 44 x[68] - 93 x[69] - 89 x[70] - 39 x[71] - 61 x[72] - 77 x[73]
   - 94 x[74] - 6 x[75] - 2 x[76] - 97 x[77] - 100 x[78] - 83 x[79]
Subject To
 primal_upper: 57 x[0] + 82 x[1] + 60 x[2] + 85 x[3] + 98 x[4] + 75 x[5]
   + 99 x[6] + 37 x[7] + 55 x[8] + 84 x[9] + 45 x[10] + 81 x[11] + 6 x[12]
   + 86 x[13] + 90 x[14] + 82 x[15] + 43 x[16] + 82 x[17] + 27 x[18]
   + 36 x[19] + 19 x[20] + 89 x[21] + 6 x[22] + 32 x[23] + 34 x[24]
   + 90 x[25] + 24 x[26] + 25 x[27] + 87 x[28] + 29 x[29] + 35 x[30]
   + 77 x[31] + 85 x[32] + 63 x[33] + 14 x[34] + 67 x[35] + 98 x[36]
   + 30 x[37] + 22 x[38] + 28 x[39] + 29 x[40] + 27 x[41] + 48 x[42]
   + 3 x[43] + 49 x[44] + 40 x[45] + 27 x[46] + 67 x[47] + 33 x[48]
   + 10 x[49] + 24 x[50] + 14 x[51] + 31 x[52] + 66 x[53] + 38 x[54]
   + 9 x[55] + 67 x[56] + 64 x[57] + 34 x[58] + 80 x[59] + 14 x[60]
   + 32 x[61] + 13 x[62] + 16 x[63] + 37 x[64] + 98 x[65] + 46 x[66]
   + 44 x[67] + 18 x[68] + 7 x[69] + 15 x[70] + 59 x[71] + 88 x[72]
   + 97 x[73] + 29 x[74] + 22 x[75] + 44 x[76] + 45 x[77] + 78 x[78]
   + 76 x[79] + 5.7 r[0] + 8.2 r[1] + 6 r[2] + 8.5 r[3] + 9.8 r[4]
   + 7.5 r[5] + 9.9 r[6] + 3.7 r[7] + 5.5 r[8] + 8.4 r[9] + 4.5 r[10]
   + 8.1 r[11] + 0.6 r[12] + 8.6 r[13] + 9 r[14] + 8.2 r[15] + 4.3 r[16]
   + 8.2 r[17] + 2.7 r[18] + 3.6 r[19] + 1.9 r[20] + 8.9 r[21] + 0.6 r[22]
   + 3.2 r[23] + 3.4 r[24] + 9 r[25] + 2.4 r[26] + 2.5 r[27] + 8.7 r[28]
   + 2.9 r[29] + 3.5 r[30] + 7.7 r[31] + 8.5 r[32] + 6.3 r[33] + 1.4 r[34]
   + 6.7 r[35] + 9.8 r[36] + 3 r[37] + 2.2 r[38] + 2.8 r[39] + 2.9 r[40]
   + 2.7 r[41] + 4.8 r[42] + 0.3 r[43] + 4.9 r[44] + 4 r[45] + 2.7 r[46]
   + 6.7 r[47] + 3.3 r[48] + r[49] + 2.4 r[50] + 1.4 r[51] + 3.1 r[52]
   + 6.6 r[53] + 3.8 r[54] + 0.9 r[55] + 6.7 r[56] + 6.4 r[57] + 3.4 r[58]
   + 8 r[59] + 1.4 r[60] + 3.2 r[61] + 1.3 r[62] + 1.6 r[63] + 3.7 r[64]
   + 9.8 r[65] + 4.6 r[66] + 4.4 r[67] + 1.8 r[68] + 0.7 r[69] + 1.5 r[70]
   + 5.9 r[71] + 8.8 r[72] + 9.7 r[73] + 2.9 r[74] + 2.2 r[75] + 4.4 r[76]
   + 4.5 r[77] + 7.8 r[78] + 7.6 r[79] <= 371
 primal_lower: 2.960713742463614 x[0] + 2.714926739152129 x[1]
   + 1.866502947833606 x[2] + 0.1080201107382046 x[3]
   + 1.668533284633614 x[4] + 3.315464069775264 x[5]
   + 2.220915882538873 x[6] + 4.433431723384775 x[7]
   + 3.607381436376491 x[8] + 1.777992630279787 x[9]
   + 1.457599166743183 x[10] + 3.105298273215082 x[11]
   + 2.212403579708333 x[12] + 2.607681116795726 x[13]
   + 3.539588587618201 x[14] + 3.18190733071836 x[15]
   + 2.479880549976218 x[16] + 1.56512063833954 x[17]
   + 0.7874603260447607 x[18] + 0.1960495329680571 x[19]
   + 2.766317026047977 x[20] + 1.520838859439572 x[21]
   + 4.526797735181852 x[22] + 0.366534400281324 x[23]
   + 4.920523460147127 x[24] + 1.699631261882131 x[25]
   + 3.180352311455126 x[26] + 4.400852975361642 x[27]
   + 2.173428802932182 x[28] + 0.0555231292133804 x[29]
   + 0.5605399788553795 x[30] + 4.869929811071186 x[31]
   + 1.046919020824971 x[32] + 0.2356402068351645 x[33]
   + 3.466283760802838 x[34] + 2.631449763172141 x[35]
   + 0.7342427441399183 x[36] + 2.644491413448604 x[37]
   + 1.376397740951085 x[38] + 0.1873330266764247 x[39]
   + 3.961584790277605 x[40] + 3.757957387578756 x[41]
   + 3.403249719858746 x[42] + 2.134639484916833 x[43]
   + 4.236344237568495 x[44] + 2.552291894274508 x[45]
   + 4.772268146476156 x[46] + 0.8345331880449334 x[47]
   + 0.9805772459968036 x[48] + 0.6237749317421559 x[49]
   + 1.285916053262235 x[50] + 4.360135135042633 x[51]
   + 1.189015920426869 x[52] + 3.921511938018608 x[53]
   + 4.517598632123534 x[54] + 2.963710446202886 x[55]
   + 2.786388413159541 x[56] + 2.323339386566376 x[57]
   + 1.766820127422596 x[58] + 3.403058722811055 x[59]
   + 2.837266701454157 x[60] + 2.240085648213131 x[61]
   + 1.801567226705328 x[62] + 3.831560481721494 x[63]
   + 0.8600389925916176 x[64] + 4.914470623511403 x[65]
   + 3.096406783196164 x[66] + 3.855937416673074 x[67]
   + 0.1670037886202757 x[68] + 2.203908780298041 x[69]
   + 4.368808085940043 x[70] + 0.087068555548806 x[71]
   + 1.51644057246311 x[72] + 2.359005500488853 x[73]
   + 3.057755954716139 x[74] + 0.9044673774223601 x[75]
   + 4.633305217791444 x[76] + 3.462689789129796 x[77]
   + 3.650752500992748 x[78] + 3.749624082058418 x[79] + 5 u[0] + 17 u[1]
   + 91 u[2] + 92 u[3] + 89 u[4] + 95 u[5] + 22 u[6] + 5 u[7] + 66 u[8]
   + 3 u[9] + 81 u[10] + 20 u[11] + 53 u[12] + 93 u[13] + 62 u[14]
   + 6 u[15] + 14 u[16] + 61 u[17] + 98 u[18] + 95 u[19] + 46 u[20]
   + 33 u[21] + 81 u[22] + 96 u[23] + 98 u[24] + u[25] + 71 u[26]
   + 65 u[27] + 55 u[28] + 100 u[29] + 7 u[30] + 41 u[31] + 69 u[32]
   + 2 u[33] + 89 u[34] + 6 u[35] + 77 u[36] + 22 u[37] + 77 u[38]
   + 88 u[39] + 12 u[40] + 31 u[41] + 83 u[42] + 55 u[43] + 8 u[44]
   + 4 u[45] + 43 u[46] + 79 u[47] + 60 u[48] + 37 u[49] + 44 u[50]
   + 29 u[51] + 6 u[52] + 21 u[53] + 18 u[54] + 77 u[55] + 94 u[56]
   + 40 u[57] + 37 u[58] + 23 u[59] + 14 u[60] + 8 u[61] + 53 u[62]
   + 72 u[63] + 13 u[64] + 69 u[65] + 74 u[66] + 56 u[67] + 93 u[68]
   + 67 u[69] + 91 u[70] + 71 u[71] + 75 u[72] + 8 u[73] + 69 u[74]
   + 70 u[75] + 12 u[76] + 84 u[77] + 54 u[78] + 96 u[79] <= 87732
 mccormick1[0]: - u[0] + r[0] <= 0
 mccormick1[1]: - u[1] + r[1] <= 0
 mccormick1[2]: - u[2] + r[2] <= 0
 mccormick1[3]: - u[3] + r[3] <= 0
 mccormick1[4]: - u[4] + r[4] <= 0
 mccormick1[5]: - u[5] + r[5] <= 0
 mccormick1[6]: - u[6] + r[6] <= 0
 mccormick1[7]: - u[7] + r[7] <= 0
 mccormick1[8]: - u[8] + r[8] <= 0
 mccormick1[9]: - u[9] + r[9] <= 0
 mccormick1[10]: - u[10] + r[10] <= 0
 mccormick1[11]: - u[11] + r[11] <= 0
 mccormick1[12]: - u[12] + r[12] <= 0
 mccormick1[13]: - u[13] + r[13] <= 0
 mccormick1[14]: - u[14] + r[14] <= 0
 mccormick1[15]: - u[15] + r[15] <= 0
 mccormick1[16]: - u[16] + r[16] <= 0
 mccormick1[17]: - u[17] + r[17] <= 0
 mccormick1[18]: - u[18] + r[18] <= 0
 mccormick1[19]: - u[19] + r[19] <= 0
 mccormick1[20]: - u[20] + r[20] <= 0
 mccormick1[21]: - u[21] + r[21] <= 0
 mccormick1[22]: - u[22] + r[22] <= 0
 mccormick1[23]: - u[23] + r[23] <= 0
 mccormick1[24]: - u[24] + r[24] <= 0
 mccormick1[25]: - u[25] + r[25] <= 0
 mccormick1[26]: - u[26] + r[26] <= 0
 mccormick1[27]: - u[27] + r[27] <= 0
 mccormick1[28]: - u[28] + r[28] <= 0
 mccormick1[29]: - u[29] + r[29] <= 0
 mccormick1[30]: - u[30] + r[30] <= 0
 mccormick1[31]: - u[31] + r[31] <= 0
 mccormick1[32]: - u[32] + r[32] <= 0
 mccormick1[33]: - u[33] + r[33] <= 0
 mccormick1[34]: - u[34] + r[34] <= 0
 mccormick1[35]: - u[35] + r[35] <= 0
 mccormick1[36]: - u[36] + r[36] <= 0
 mccormick1[37]: - u[37] + r[37] <= 0
 mccormick1[38]: - u[38] + r[38] <= 0
 mccormick1[39]: - u[39] + r[39] <= 0
 mccormick1[40]: - u[40] + r[40] <= 0
 mccormick1[41]: - u[41] + r[41] <= 0
 mccormick1[42]: - u[42] + r[42] <= 0
 mccormick1[43]: - u[43] + r[43] <= 0
 mccormick1[44]: - u[44] + r[44] <= 0
 mccormick1[45]: - u[45] + r[45] <= 0
 mccormick1[46]: - u[46] + r[46] <= 0
 mccormick1[47]: - u[47] + r[47] <= 0
 mccormick1[48]: - u[48] + r[48] <= 0
 mccormick1[49]: - u[49] + r[49] <= 0
 mccormick1[50]: - u[50] + r[50] <= 0
 mccormick1[51]: - u[51] + r[51] <= 0
 mccormick1[52]: - u[52] + r[52] <= 0
 mccormick1[53]: - u[53] + r[53] <= 0
 mccormick1[54]: - u[54] + r[54] <= 0
 mccormick1[55]: - u[55] + r[55] <= 0
 mccormick1[56]: - u[56] + r[56] <= 0
 mccormick1[57]: - u[57] + r[57] <= 0
 mccormick1[58]: - u[58] + r[58] <= 0
 mccormick1[59]: - u[59] + r[59] <= 0
 mccormick1[60]: - u[60] + r[60] <= 0
 mccormick1[61]: - u[61] + r[61] <= 0
 mccormick1[62]: - u[62] + r[62] <= 0
 mccormick1[63]: - u[63] + r[63] <= 0
 mccormick1[64]: - u[64] + r[64] <= 0
 mccormick1[65]: - u[65] + r[65] <= 0
 mccormick1[66]: - u[66] + r[66] <= 0
 mccormick1[67]: - u[67] + r[67] <= 0
 mccormick1[68]: - u[68] + r[68] <= 0
 mccormick1[69]: - u[69] + r[69] <= 0
 mccormick1[70]: - u[70] + r[70] <= 0
 mccormick1[71]: - u[71] + r[71] <= 0
 mccormick1[72]: - u[72] + r[72] <= 0
 mccormick1[73]: - u[73] + r[73] <= 0
 mccormick1[74]: - u[74] + r[74] <= 0
 mccormick1[75]: - u[75] + r[75] <= 0
 mccormick1[76]: - u[76] + r[76] <= 0
 mccormick1[77]: - u[77] + r[77] <= 0
 mccormick1[78]: - u[78] + r[78] <= 0
 mccormick1[79]: - u[79] + r[79] <= 0
 mccormick2[0]: - x[0] + r[0] <= 0
 mccormick2[1]: - x[1] + r[1] <= 0
 mccormick2[2]: - x[2] + r[2] <= 0
 mccormick2[3]: - x[3] + r[3] <= 0
 mccormick2[4]: - x[4] + r[4] <= 0
 mccormick2[5]: - x[5] + r[5] <= 0
 mccormick2[6]: - x[6] + r[6] <= 0
 mccormick2[7]: - x[7] + r[7] <= 0
 mccormick2[8]: - x[8] + r[8] <= 0
 mccormick2[9]: - x[9] + r[9] <= 0
 mccormick2[10]: - x[10] + r[10] <= 0
 mccormick2[11]: - x[11] + r[11] <= 0
 mccormick2[12]: - x[12] + r[12] <= 0
 mccormick2[13]: - x[13] + r[13] <= 0
 mccormick2[14]: - x[14] + r[14] <= 0
 mccormick2[15]: - x[15] + r[15] <= 0
 mccormick2[16]: - x[16] + r[16] <= 0
 mccormick2[17]: - x[17] + r[17] <= 0
 mccormick2[18]: - x[18] + r[18] <= 0
 mccormick2[19]: - x[19] + r[19] <= 0
 mccormick2[20]: - x[20] + r[20] <= 0
 mccormick2[21]: - x[21] + r[21] <= 0
 mccormick2[22]: - x[22] + r[22] <= 0
 mccormick2[23]: - x[23] + r[23] <= 0
 mccormick2[24]: - x[24] + r[24] <= 0
 mccormick2[25]: - x[25] + r[25] <= 0
 mccormick2[26]: - x[26] + r[26] <= 0
 mccormick2[27]: - x[27] + r[27] <= 0
 mccormick2[28]: - x[28] + r[28] <= 0
 mccormick2[29]: - x[29] + r[29] <= 0
 mccormick2[30]: - x[30] + r[30] <= 0
 mccormick2[31]: - x[31] + r[31] <= 0
 mccormick2[32]: - x[32] + r[32] <= 0
 mccormick2[33]: - x[33] + r[33] <= 0
 mccormick2[34]: - x[34] + r[34] <= 0
 mccormick2[35]: - x[35] + r[35] <= 0
 mccormick2[36]: - x[36] + r[36] <= 0
 mccormick2[37]: - x[37] + r[37] <= 0
 mccormick2[38]: - x[38] + r[38] <= 0
 mccormick2[39]: - x[39] + r[39] <= 0
 mccormick2[40]: - x[40] + r[40] <= 0
 mccormick2[41]: - x[41] + r[41] <= 0
 mccormick2[42]: - x[42] + r[42] <= 0
 mccormick2[43]: - x[43] + r[43] <= 0
 mccormick2[44]: - x[44] + r[44] <= 0
 mccormick2[45]: - x[45] + r[45] <= 0
 mccormick2[46]: - x[46] + r[46] <= 0
 mccormick2[47]: - x[47] + r[47] <= 0
 mccormick2[48]: - x[48] + r[48] <= 0
 mccormick2[49]: - x[49] + r[49] <= 0
 mccormick2[50]: - x[50] + r[50] <= 0
 mccormick2[51]: - x[51] + r[51] <= 0
 mccormick2[52]: - x[52] + r[52] <= 0
 mccormick2[53]: - x[53] + r[53] <= 0
 mccormick2[54]: - x[54] + r[54] <= 0
 mccormick2[55]: - x[55] + r[55] <= 0
 mccormick2[56]: - x[56] + r[56] <= 0
 mccormick2[57]: - x[57] + r[57] <= 0
 mccormick2[58]: - x[58] + r[58] <= 0
 mccormick2[59]: - x[59] + r[59] <= 0
 mccormick2[60]: - x[60] + r[60] <= 0
 mccormick2[61]: - x[61] + r[61] <= 0
 mccormick2[62]: - x[62] + r[62] <= 0
 mccormick2[63]: - x[63] + r[63] <= 0
 mccormick2[64]: - x[64] + r[64] <= 0
 mccormick2[65]: - x[65] + r[65] <= 0
 mccormick2[66]: - x[66] + r[66] <= 0
 mccormick2[67]: - x[67] + r[67] <= 0
 mccormick2[68]: - x[68] + r[68] <= 0
 mccormick2[69]: - x[69] + r[69] <= 0
 mccormick2[70]: - x[70] + r[70] <= 0
 mccormick2[71]: - x[71] + r[71] <= 0
 mccormick2[72]: - x[72] + r[72] <= 0
 mccormick2[73]: - x[73] + r[73] <= 0
 mccormick2[74]: - x[74] + r[74] <= 0
 mccormick2[75]: - x[75] + r[75] <= 0
 mccormick2[76]: - x[76] + r[76] <= 0
 mccormick2[77]: - x[77] + r[77] <= 0
 mccormick2[78]: - x[78] + r[78] <= 0
 mccormick2[79]: - x[79] + r[79] <= 0
 mccormick3[0]: x[0] + u[0] - r[0] <= 1
 mccormick3[1]: x[1] + u[1] - r[1] <= 1
 mccormick3[2]: x[2] + u[2] - r[2] <= 1
 mccormick3[3]: x[3] + u[3] - r[3] <= 1
 mccormick3[4]: x[4] + u[4] - r[4] <= 1
 mccormick3[5]: x[5] + u[5] - r[5] <= 1
 mccormick3[6]: x[6] + u[6] - r[6] <= 1
 mccormick3[7]: x[7] + u[7] - r[7] <= 1
 mccormick3[8]: x[8] + u[8] - r[8] <= 1
 mccormick3[9]: x[9] + u[9] - r[9] <= 1
 mccormick3[10]: x[10] + u[10] - r[10] <= 1
 mccormick3[11]: x[11] + u[11] - r[11] <= 1
 mccormick3[12]: x[12] + u[12] - r[12] <= 1
 mccormick3[13]: x[13] + u[13] - r[13] <= 1
 mccormick3[14]: x[14] + u[14] - r[14] <= 1
 mccormick3[15]: x[15] + u[15] - r[15] <= 1
 mccormick3[16]: x[16] + u[16] - r[16] <= 1
 mccormick3[17]: x[17] + u[17] - r[17] <= 1
 mccormick3[18]: x[18] + u[18] - r[18] <= 1
 mccormick3[19]: x[19] + u[19] - r[19] <= 1
 mccormick3[20]: x[20] + u[20] - r[20] <= 1
 mccormick3[21]: x[21] + u[21] - r[21] <= 1
 mccormick3[22]: x[22] + u[22] - r[22] <= 1
 mccormick3[23]: x[23] + u[23] - r[23] <= 1
 mccormick3[24]: x[24] + u[24] - r[24] <= 1
 mccormick3[25]: x[25] + u[25] - r[25] <= 1
 mccormick3[26]: x[26] + u[26] - r[26] <= 1
 mccormick3[27]: x[27] + u[27] - r[27] <= 1
 mccormick3[28]: x[28] + u[28] - r[28] <= 1
 mccormick3[29]: x[29] + u[29] - r[29] <= 1
 mccormick3[30]: x[30] + u[30] - r[30] <= 1
 mccormick3[31]: x[31] + u[31] - r[31] <= 1
 mccormick3[32]: x[32] + u[32] - r[32] <= 1
 mccormick3[33]: x[33] + u[33] - r[33] <= 1
 mccormick3[34]: x[34] + u[34] - r[34] <= 1
 mccormick3[35]: x[35] + u[35] - r[35] <= 1
 mccormick3[36]: x[36] + u[36] - r[36] <= 1
 mccormick3[37]: x[37] + u[37] - r[37] <= 1
 mccormick3[38]: x[38] + u[38] - r[38] <= 1
 mccormick3[39]: x[39] + u[39] - r[39] <= 1
 mccormick3[40]: x[40] + u[40] - r[40] <= 1
 mccormick3[41]: x[41] + u[41] - r[41] <= 1
 mccormick3[42]: x[42] + u[42] - r[42] <= 1
 mccormick3[43]: x[43] + u[43] - r[43] <= 1
 mccormick3[44]: x[44] + u[44] - r[44] <= 1
 mccormick3[45]: x[45] + u[45] - r[45] <= 1
 mccormick3[46]: x[46] + u[46] - r[46] <= 1
 mccormick3[47]: x[47] + u[47] - r[47] <= 1
 mccormick3[48]: x[48] + u[48] - r[48] <= 1
 mccormick3[49]: x[49] + u[49] - r[49] <= 1
 mccormick3[50]: x[50] + u[50] - r[50] <= 1
 mccormick3[51]: x[51] + u[51] - r[51] <= 1
 mccormick3[52]: x[52] + u[52] - r[52] <= 1
 mccormick3[53]: x[53] + u[53] - r[53] <= 1
 mccormick3[54]: x[54] + u[54] - r[54] <= 1
 mccormick3[55]: x[55] + u[55] - r[55] <= 1
 mccormick3[56]: x[56] + u[56] - r[56] <= 1
 mccormick3[57]: x[57] + u[57] - r[57] <= 1
 mccormick3[58]: x[58] + u[58] - r[58] <= 1
 mccormick3[59]: x[59] + u[59] - r[59] <= 1
 mccormick3[60]: x[60] + u[60] - r[60] <= 1
 mccormick3[61]: x[61] + u[61] - r[61] <= 1
 mccormick3[62]: x[62] + u[62] - r[62] <= 1
 mccormick3[63]: x[63] + u[63] - r[63] <= 1
 mccormick3[64]: x[64] + u[64] - r[64] <= 1
 mccormick3[65]: x[65] + u[65] - r[65] <= 1
 mccormick3[66]: x[66] + u[66] - r[66] <= 1
 mccormick3[67]: x[67] + u[67] - r[67] <= 1
 mccormick3[68]: x[68] + u[68] - r[68] <= 1
 mccormick3[69]: x[69] + u[69] - r[69] <= 1
 mccormick3[70]: x[70] + u[70] - r[70] <= 1
 mccormick3[71]: x[71] + u[71] - r[71] <= 1
 mccormick3[72]: x[72] + u[72] - r[72] <= 1
 mccormick3[73]: x[73] + u[73] - r[73] <= 1
 mccormick3[74]: x[74] + u[74] - r[74] <= 1
 mccormick3[75]: x[75] + u[75] - r[75] <= 1
 mccormick3[76]: x[76] + u[76] - r[76] <= 1
 mccormick3[77]: x[77] + u[77] - r[77] <= 1
 mccormick3[78]: x[78] + u[78] - r[78] <= 1
 mccormick3[79]: x[79] + u[79] - r[79] <= 1
Bounds
Binaries
 x[0] x[1] x[2] x[3] x[4] x[5] x[6] x[7] x[8] x[9] x[10] x[11] x[12] x[13]
 x[14] x[15] x[16] x[17] x[18] x[19] x[20] x[21] x[22] x[23] x[24] x[25]
 x[26] x[27] x[28] x[29] x[30] x[31] x[32] x[33] x[34] x[35] x[36] x[37]
 x[38] x[39] x[40] x[41] x[42] x[43] x[44] x[45] x[46] x[47] x[48] x[49]
 x[50] x[51] x[52] x[53] x[54] x[55] x[56] x[57] x[58] x[59] x[60] x[61]
 x[62] x[63] x[64] x[65] x[66] x[67] x[68] x[69] x[70] x[71] x[72] x[73]
 x[74] x[75] x[76] x[77] x[78] x[79] u[0] u[1] u[2] u[3] u[4] u[5] u[6]
 u[7] u[8] u[9] u[10] u[11] u[12] u[13] u[14] u[15] u[16] u[17] u[18] u[19]
 u[20] u[21] u[22] u[23] u[24] u[25] u[26] u[27] u[28] u[29] u[30] u[31]
 u[32] u[33] u[34] u[35] u[36] u[37] u[38] u[39] u[40] u[41] u[42] u[43]
 u[44] u[45] u[46] u[47] u[48] u[49] u[50] u[51] u[52] u[53] u[54] u[55]
 u[56] u[57] u[58] u[59] u[60] u[61] u[62] u[63] u[64] u[65] u[66] u[67]
 u[68] u[69] u[70] u[71] u[72] u[73] u[74] u[75] u[76] u[77] u[78] u[79]
 r[0] r[1] r[2] r[3] r[4] r[5] r[6] r[7] r[8] r[9] r[10] r[11] r[12] r[13]
 r[14] r[15] r[16] r[17] r[18] r[19] r[20] r[21] r[22] r[23] r[24] r[25]
 r[26] r[27] r[28] r[29] r[30] r[31] r[32] r[33] r[34] r[35] r[36] r[37]
 r[38] r[39] r[40] r[41] r[42] r[43] r[44] r[45] r[46] r[47] r[48] r[49]
 r[50] r[51] r[52] r[53] r[54] r[55] r[56] r[57] r[58] r[59] r[60] r[61]
 r[62] r[63] r[64] r[65] r[66] r[67] r[68] r[69] r[70] r[71] r[72] r[73]
 r[74] r[75] r[76] r[77] r[78] r[79]
End
